
GUB cover cuts applied:  2
Clique cuts applied:  5
Cover cuts applied:  3
Implied bound cuts applied:  10
Mixed integer rounding cuts applied:  1
Zero-half cuts applied:  10

Root node processing (before b&c):
  Real time             =    0.05 sec. (10.62 ticks)
Parallel b&c, 4 threads:
  Real time             =    0.00 sec. (0.00 ticks)
  Sync time (average)   =    0.00 sec.
  Wait time (average)   =    0.00 sec.
                          ------------
Total (root+branch&cut) =    0.05 sec. (10.62 ticks)
Version identifier: 12.10.0.0 | 2019-11-26 | 843d4de
CPXPARAM_MIP_Interval                            10
CPXPARAM_MIP_Tolerances_AbsMIPGap                0.98999999999999999
Tried aggregator 2 times.
MIP Presolve eliminated 799 rows and 370 columns.
MIP Presolve added 4 rows and 0 columns.
MIP Presolve modified 66 coefficients.
Aggregator did 11 substitutions.
Reduced MIP has 358 rows, 78 columns, and 872 nonzeros.
Reduced MIP has 59 binaries, 19 generals, 0 SOSs, and 0 indicators.
Presolve time = 0.00 sec. (1.77 ticks)
Probing fixed 0 vars, tightened 9 bounds.
Probing time = 0.00 sec. (0.21 ticks)
Cover probing fixed 0 vars, tightened 8 bounds.
Tried aggregator 1 time.
Detecting symmetries...
MIP Presolve eliminated 204 rows and 0 columns.
MIP Presolve modified 9 coefficients.
Reduced MIP has 154 rows, 78 columns, and 464 nonzeros.
Reduced MIP has 59 binaries, 19 generals, 0 SOSs, and 0 indicators.
Presolve time = 0.00 sec. (0.40 ticks)
Probing fixed 0 vars, tightened 8 bounds.
Probing time = 0.00 sec. (0.11 ticks)
Cover probing fixed 0 vars, tightened 5 bounds.
Clique table members: 118.
MIP emphasis: balance optimality and feasibility.
MIP search method: dynamic search.
Parallel mode: deterministic, using up to 4 threads.
Root relaxation solution time = 0.00 sec. (0.49 ticks)

        Nodes                                         Cuts/
   Node  Left     Objective  IInf  Best Integer    Best Bound    ItCnt     Gap

      0     0       12.5000    42                     12.5000       70         
      0     0       12.0000    42                    Cuts: 50      118         
      0     0       12.0000    42                    Cuts: 50      185         
      0     0       12.0000    42                     Cuts: 3      210         
      0     0       12.0000    42                    Cuts: 28      229         
*     0+    0                           11.0000       12.0000             9.09%
      0     0        cutoff             11.0000       11.0000      229    0.00%
Elapsed time = 0.03 sec. (19.12 ticks, tree = 0.01 MB, solutions = 1)
the number of Nodes = 0
